
******************************************************************************
This program contains Ipopt, a library for large-scale nonlinear optimization.
 Ipopt is released as open source code under the Eclipse Public License (EPL).
         For more information visit http://projects.coin-or.org/Ipopt
******************************************************************************

This is Ipopt version 3.12.6, running with linear solver ma57.

Number of nonzeros in equality constraint Jacobian...:     5000
Number of nonzeros in inequality constraint Jacobian.:        0
Number of nonzeros in Lagrangian Hessian.............:     2000

Total number of variables............................:     4000
                     variables with only lower bounds:        0
                variables with lower and upper bounds:        0
                     variables with only upper bounds:        0
Total number of equality constraints.................:     3001
Total number of inequality constraints...............:        0
        inequality constraints with only lower bounds:        0
   inequality constraints with lower and upper bounds:        0
        inequality constraints with only upper bounds:        0

iter    objective    inf_pr   inf_du lg(mu)  ||d||  lg(rg) alpha_du alpha_pr  ls
   0 -5.6979000e+04 9.00e+02 1.01e+01  -1.0 0.00e+00    -  0.00e+00 0.00e+00   0
   1 -9.8119774e+06 5.19e+06 1.66e+02  -1.0 9.79e+02  -2.0 1.00e+00 1.00e+00f  1
   2  4.1840827e+11 1.00e+00 2.90e+05  -1.0 4.77e+06    -  1.00e+00 1.00e+00H  1
   3 -8.9252528e+03 1.00e+00 3.09e-11  -1.0 4.30e+08    -  1.00e+00 1.00e+00F  1
   4 -8.9252525e+03 1.00e+00 1.11e-16  -1.7 8.03e-08    -  1.00e+00 1.00e+00h  1
   5r-8.9252525e+03 1.00e+00 9.99e+02   0.0 0.00e+00    -  0.00e+00 4.77e-07R 22
   6r-8.9252525e+03 1.00e+00 5.00e+02   0.0 1.00e-11    -  1.00e+00 5.00e-01f  2
   7r-8.9252525e+03 1.00e+00 1.00e-05   0.0 5.00e-12    -  1.00e+00 1.00e+00h  1
   8r-8.9252525e+03 1.00e+00 4.95e-04  -2.1 9.92e-04    -  1.00e+00 1.00e+00f  1
   9r-8.9252525e+03 1.00e+00 1.91e-10  -4.7 8.48e-06    -  1.00e+00 1.00e+00f  1

Number of Iterations....: 9

                                   (scaled)                 (unscaled)
Objective...............:  -8.9252525252524447e+03   -8.9252525252524447e+03
Dual infeasibility......:   1.0100000000000000e+01    1.0100000000000000e+01
Constraint violation....:   1.0000000000000000e+00    1.0000000000000000e+00
Complementarity.........:   0.0000000000000000e+00    0.0000000000000000e+00
Overall NLP error.......:   1.0100000000000000e+01    1.0100000000000000e+01


Number of objective function evaluations             = 36
Number of objective gradient evaluations             = 7
Number of equality constraint evaluations            = 38
Number of inequality constraint evaluations          = 0
Number of equality constraint Jacobian evaluations   = 12
Number of inequality constraint Jacobian evaluations = 0
Number of Lagrangian Hessian evaluations             = 10
Total CPU secs in IPOPT (w/o function evaluations)   =      0.023
Total CPU secs in NLP function evaluations           =      0.017

EXIT: Converged to a point of local infeasibility. Problem may be infeasible.
Note: The following floating-point exceptions are signalling: IEEE_OVERFLOW_FLAG

************************ CUTEst statistics ************************


 Package used            :  IPOPT
 Problem                 :  WOODSNE   
 # variables             =            4000
 # constraints           =            3001
 # objective functions   =        0.4400000E+02
 # objective gradients   =        0.8000000E+01
 # objective Hessians    =        0.1000000E+02
 # Hessian-vector prdct  =        0.0000000E+00
 # constraints functions =        0.5200000E+02
 # constraints gradients =        0.1400000E+02
 # constraints Hessians  =        0.1000000E+02
 Exit code               =               2
 Final f                 =  -0.8925253E+04
 Set up time             =            0.08 seconds
 Solve time              =            0.15 seconds


******************************************************************

System Time =       0.0379999988 s.
